! HF-3c
%maxcore 40
*xyz 0 1
H 0.000000 0.000000 0.000000
H 1.000000 0.000000 0.000000
*
