	units real
atom_style full
pair_style lj/cut/coul/dsf 0.05 2.5 10.0
bond_style harmonic
angle_style harmonic
dihedral_style opls
special_bonds lj/coul 0.0 0.0 0.5
boundary p p p
read_data	test.data
thermo_style multi
thermo 0
velocity all create 300.0 1 rot yes dist gaussian
fix motion all nvt temp 300.0 300.0 100.0
run 10